200
400
320
320
319
314
314
314
314
312
312
312
309
305
304
303
295
295
294
292
292
289
288
288
284
282
280
280
280
276
276
275
274
273
273
272
270
268
267
266
266
266
264
264
263
263
262
262
261
260
258
257
255
255
251
249
249
248
247
246
245
245
245
245
243
243
242
241
240
238
237
236
236
235
234
230
230
229
229
229
227
227
226
226
226
224
224
223
223
222
221
221
221
219
219
217
212
211
210
209
207
207
207
205
205
204
202
201
198
198
196
196
195
193
191
191
190
189
187
187
186
183
183
181
178
178
175
174
173
172
172
172
167
167
162
162
162
160
159
156
155
155
154
153
151
150
148
147
146
145
143
142
139
139
138
136
135
135
134
132
132
131
130
129
129
123
123
122
117
115
114
113
111
107
107
105
105
103
103
102
102
101
100
99
98
97
96
96
95
94
94
93
93
90
90
89
86
86
86
86
82
82
